NAME: eil101
TYPE: TOUR
DIMENSION: 101
TOUR_SECTION
37
98
92
97
87
2
57
15
43
42
95
94
13
58
40
21
73
72
74
75
56
39
67
23
4
22
41
26
12
80
54
55
25
68
77
3
79
33
81
9
51
71
65
35
78
34
76
50
1
69
29
24
53
101
27
28
6
89
59
99
96
93
85
91
61
16
44
38
14
86
5
84
17
60
18
52
83
8
46
45
82
48
47
36
49
64
7
88
62
11
19
10
90
32
63
31
70
30
20
66
100
EOF
